s td 33 13 45
b 1 10 25
b 2 1 17 40
b 3 8 20 40
b 4 16 30 38
b 5 4 22 35 44
b 6 7 19 27 43
b 7 1 5 8 11 18 23 26 28 30 31 32 35 44
b 8 2 5 8 11 18 23 26 28 30 31 32 35 44
b 9 2 5 8 11 18 21 26 28 31 32 35 44
b 10 2 5 11 18 21 26 31 32 34 35
b 11 2 15 18 21 26 31 34 35
b 12 2 15 21 26 31 37
b 13 6 26 31 37
b 14 2 5 8 11 18 21 28 31 32 35 39
b 15 2 5 8 18 31 32 35 36 39
b 16 5 8 25 32 35 36 39
b 17 5 25 32 35 36 41
b 18 2 18 31 33 35 36
b 19 1 5 8 11 18 24 26 28 30 31 32 35 44
b 20 1 3 8 11 18 24 26 30 32 35
b 21 1 3 11 12 24 26 30 32 35
b 22 1 7 11 12 24 26 30 32
b 23 7 11 16 24 30 32
b 24 1 7 12 24 26 30 45
b 25 7 24 26 30 43 45
b 26 7 19 24 26 43
b 27 24 26 30 31 35 42 44
b 28 22 26 31 35 42 44
b 29 1 5 8 11 23 26 28 30 31 40 44
b 30 5 9 11 26 28 30 31 40 44
b 31 5 9 28 29 30 40
b 32 5 13 26 28 44
b 33 14
1 16
1 33
2 29
3 29
4 23
5 28
6 26
7 8
7 19
7 29
7 32
8 9
9 10
9 14
10 11
11 12
12 13
14 15
15 16
15 18
16 17
19 20
19 27
20 21
21 22
22 23
22 24
24 25
25 26
27 28
29 30
30 31
